NAME : berlin52-R-3-0-b.12668.tour
COMMENT : Length = 12668
COMMENT : Found by LKH-3 [Keld Helsgaun] Tue Jul 30 13:14:23 2024
TYPE : TOUR
DIMENSION : 52
TOUR_SECTION
1
31
21
42
7
30
29
46
48
6
15
40
41
8
33
51
52
13
26
28
24
37
39
36
34
44
16
20
2
18
3
19
45
43
9
10
17
23
50
47
14
27
11
12
25
4
5
38
35
49
32
22
-1
EOF
